%
% Generated Sudoku 16x16
% Density approximation: 0.50
%
x = array2d(1..n, 1..n, [
   _,   _,   _,   8,   2,   _,   _,   _,  13,  14,   _,  11,  16,  12,   _,   7,
   _,  15,   _,  12,   6,   4,  16,   7,   5,   _,   _,   _,   _,   _,   _,  13,
   4,   _,  14,   _,  13,  15,   _,  10,   _,   7,   _,  12,   _,   6,   9,   _,
   1,   _,  16,   7,   _,   _,   _,   _,   4,   _,   _,   2,   3,   5,   _,   _,
   _,   4,   _,  16,   _,   _,   _,  14,   _,   6,  11,  13,   _,   _,  12,   _,
   _,   _,   _,   _,   _,  13,   9,   _,   _,  10,   _,   _,   _,   _,   _,  11,
   _,   _,   _,   _,   8,  16,  12,   6,   _,   2,  14,   5,   _,   _,   3,   _,
   6,   8,  13,   _,   _,   _,   _,  11,  12,   _,   _,   _,   _,   _,   _,   _,
   8,   5,   1,  11,   _,   _,   7,   _,  14,   4,   _,   6,  12,   _,   _,   3,
   3,   7,   _,   _,  14,   6,   _,  16,   _,  12,   _,  10,   5,   4,   _,   1,
   _,   _,  12,  15,   1,   _,   5,   _,   2,  11,   9,  16,   8,   7,   _,  14,
   _,   _,   6,   4,   _,   _,  11,   _,   1,   _,   _,   7,   _,  15,  10,   9,
  16,   _,  10,   _,   _,  14,   _,  13,   _,   _,   _,   _,   2,   _,   1,   _,
   7,   _,   4,   _,   5,   2,  15,   8,  10,   _,  12,  14,   9,   3,  13,   _,
   _,   2,   _,   3,   _,   _,   _,   9,   6,   _,   _,   4,  14,   _,   _,   5,
   5,  14,   8,   _,   _,   _,   6,   _,  11,   _,   2,   1,   _,   _,   7,   _
]);

n = 16;
